c nIsolatedPIs 0
c maxPI 32
p cnf 247 646
c gate 33 -16 -32 0
-16 -33 0
-32 -33 0
16 32 33 0
c gate 34 16 32 0
16 -34 0
32 -34 0
-16 -32 34 0
c gate 35 -33 -34 0
-33 -35 0
-34 -35 0
33 34 35 0
c gate 36 -15 -31 0
-15 -36 0
-31 -36 0
15 31 36 0
c gate 37 15 31 0
15 -37 0
31 -37 0
-15 -31 37 0
c gate 38 -36 -37 0
-36 -38 0
-37 -38 0
36 37 38 0
c gate 39 -14 -30 0
-14 -39 0
-30 -39 0
14 30 39 0
c gate 40 14 30 0
14 -40 0
30 -40 0
-14 -30 40 0
c gate 41 -39 -40 0
-39 -41 0
-40 -41 0
39 40 41 0
c gate 42 -13 -29 0
-13 -42 0
-29 -42 0
13 29 42 0
c gate 43 13 29 0
13 -43 0
29 -43 0
-13 -29 43 0
c gate 44 -12 -28 0
-12 -44 0
-28 -44 0
12 28 44 0
c gate 45 12 28 0
12 -45 0
28 -45 0
-12 -28 45 0
c gate 46 -11 -27 0
-11 -46 0
-27 -46 0
11 27 46 0
c gate 47 11 27 0
11 -47 0
27 -47 0
-11 -27 47 0
c gate 48 -10 -26 0
-10 -48 0
-26 -48 0
10 26 48 0
c gate 49 10 26 0
10 -49 0
26 -49 0
-10 -26 49 0
c gate 50 9 25 0
9 -50 0
25 -50 0
-9 -25 50 0
c gate 51 -49 -50 0
-49 -51 0
-50 -51 0
49 50 51 0
c gate 52 8 24 0
8 -52 0
24 -52 0
-8 -24 52 0
c gate 53 -8 -24 0
-8 -53 0
-24 -53 0
8 24 53 0
c gate 54 -52 -53 0
-52 -54 0
-53 -54 0
52 53 54 0
c gate 55 -7 -23 0
-7 -55 0
-23 -55 0
7 23 55 0
c gate 56 7 23 0
7 -56 0
23 -56 0
-7 -23 56 0
c gate 57 -55 -56 0
-55 -57 0
-56 -57 0
55 56 57 0
c gate 58 -6 -22 0
-6 -58 0
-22 -58 0
6 22 58 0
c gate 59 4 20 0
4 -59 0
20 -59 0
-4 -20 59 0
c gate 60 2 18 0
2 -60 0
18 -60 0
-2 -18 60 0
c gate 61 1 17 0
1 -61 0
17 -61 0
-1 -17 61 0
c gate 62 3 19 0
3 -62 0
19 -62 0
-3 -19 62 0
c gate 63 -61 -62 0
-61 -63 0
-62 -63 0
61 62 63 0
c gate 64 -60 63 0
-60 -64 0
63 -64 0
60 -63 64 0
c gate 65 4 -20 0
4 -65 0
-20 -65 0
-4 20 65 0
c gate 66 -4 20 0
-4 -66 0
20 -66 0
4 -20 66 0
c gate 67 -65 -66 0
-65 -67 0
-66 -67 0
65 66 67 0
c gate 68 -3 -19 0
-3 -68 0
-19 -68 0
3 19 68 0
c gate 69 -67 -68 0
-67 -69 0
-68 -69 0
67 68 69 0
c gate 70 -64 69 0
-64 -70 0
69 -70 0
64 -69 70 0
c gate 71 -59 -70 0
-59 -71 0
-70 -71 0
59 70 71 0
c gate 72 -5 21 0
-5 -72 0
21 -72 0
5 -21 72 0
c gate 73 5 -21 0
5 -73 0
-21 -73 0
-5 21 73 0
c gate 74 -72 -73 0
-72 -74 0
-73 -74 0
72 73 74 0
c gate 75 -71 -74 0
-71 -75 0
-74 -75 0
71 74 75 0
c gate 76 -2 18 0
-2 -76 0
18 -76 0
2 -18 76 0
c gate 77 61 -76 0
61 -77 0
-76 -77 0
-61 76 77 0
c gate 78 -2 77 0
-2 -78 0
77 -78 0
2 -77 78 0
c gate 79 -62 78 0
-62 -79 0
78 -79 0
62 -78 79 0
c gate 80 70 79 0
70 -80 0
79 -80 0
-70 -79 80 0
c gate 81 75 -80 0
75 -81 0
-80 -81 0
-75 80 81 0
c gate 82 6 22 0
6 -82 0
22 -82 0
-6 -22 82 0
c gate 83 -58 -82 0
-58 -83 0
-82 -83 0
58 82 83 0
c gate 84 5 21 0
5 -84 0
21 -84 0
-5 -21 84 0
c gate 85 83 -84 0
83 -85 0
-84 -85 0
-83 84 85 0
c gate 86 -81 85 0
-81 -86 0
85 -86 0
81 -85 86 0
c gate 87 -58 -86 0
-58 -87 0
-86 -87 0
58 86 87 0
c gate 88 57 -87 0
57 -88 0
-87 -88 0
-57 87 88 0
c gate 89 54 88 0
54 -89 0
88 -89 0
-54 -88 89 0
c gate 90 -52 55 0
-52 -90 0
55 -90 0
52 -55 90 0
c gate 91 -9 -25 0
-9 -91 0
-25 -91 0
9 25 91 0
c gate 92 -53 -91 0
-53 -92 0
-91 -92 0
53 91 92 0
c gate 93 -90 92 0
-90 -93 0
92 -93 0
90 -92 93 0
c gate 94 -89 93 0
-89 -94 0
93 -94 0
89 -93 94 0
c gate 95 51 -94 0
51 -95 0
-94 -95 0
-51 94 95 0
c gate 96 -48 -95 0
-48 -96 0
-95 -96 0
48 95 96 0
c gate 97 -47 -96 0
-47 -97 0
-96 -97 0
47 96 97 0
c gate 98 -46 -97 0
-46 -98 0
-97 -98 0
46 97 98 0
c gate 99 -45 -98 0
-45 -99 0
-98 -99 0
45 98 99 0
c gate 100 -44 -99 0
-44 -100 0
-99 -100 0
44 99 100 0
c gate 101 -43 -100 0
-43 -101 0
-100 -101 0
43 100 101 0
c gate 102 -42 -101 0
-42 -102 0
-101 -102 0
42 101 102 0
c gate 103 41 -102 0
41 -103 0
-102 -103 0
-41 102 103 0
c gate 104 -39 -103 0
-39 -104 0
-103 -104 0
39 103 104 0
c gate 105 38 -104 0
38 -105 0
-104 -105 0
-38 104 105 0
c gate 106 -36 -105 0
-36 -106 0
-105 -106 0
36 105 106 0
c gate 107 35 -106 0
35 -107 0
-106 -107 0
-35 106 107 0
c gate 108 -35 106 0
-35 -108 0
106 -108 0
35 -106 108 0
c gate 109 -107 -108 0
-107 -109 0
-108 -109 0
107 108 109 0
c gate 110 -43 -45 0
-43 -110 0
-45 -110 0
43 45 110 0
c gate 111 41 -110 0
41 -111 0
-110 -111 0
-41 110 111 0
c gate 112 -40 -111 0
-40 -112 0
-111 -112 0
40 111 112 0
c gate 113 -37 112 0
-37 -113 0
112 -113 0
37 -112 113 0
c gate 114 -35 113 0
-35 -114 0
113 -114 0
35 -113 114 0
c gate 115 35 -113 0
35 -115 0
-113 -115 0
-35 113 115 0
c gate 116 -114 -115 0
-114 -116 0
-115 -116 0
114 115 116 0
c gate 117 109 116 0
109 -117 0
116 -117 0
-109 -116 117 0
c gate 118 -109 -116 0
-109 -118 0
-116 -118 0
109 116 118 0
c gate 119 -117 -118 0
-117 -119 0
-118 -119 0
117 118 119 0
c gate 120 -46 -47 0
-46 -120 0
-47 -120 0
46 47 120 0
c gate 121 -10 26 0
-10 -121 0
26 -121 0
10 -26 121 0
c gate 122 -9 25 0
-9 -122 0
25 -122 0
9 -25 122 0
c gate 123 8 -24 0
8 -123 0
-24 -123 0
-8 24 123 0
c gate 124 9 -25 0
9 -124 0
-25 -124 0
-9 25 124 0
c gate 125 -123 -124 0
-123 -125 0
-124 -125 0
123 124 125 0
c gate 126 6 -22 0
6 -126 0
-22 -126 0
-6 22 126 0
c gate 127 -1 17 0
-1 -127 0
17 -127 0
1 -17 127 0
c gate 128 -76 -127 0
-76 -128 0
-127 -128 0
76 127 128 0
c gate 129 2 -18 0
2 -129 0
-18 -129 0
-2 18 129 0
c gate 130 3 -19 0
3 -130 0
-19 -130 0
-3 19 130 0
c gate 131 -129 -130 0
-129 -131 0
-130 -131 0
129 130 131 0
c gate 132 -128 131 0
-128 -132 0
131 -132 0
128 -131 132 0
c gate 133 -3 19 0
-3 -133 0
19 -133 0
3 -19 133 0
c gate 134 -66 -133 0
-66 -134 0
-133 -134 0
66 133 134 0
c gate 135 -132 134 0
-132 -135 0
134 -135 0
132 -134 135 0
c gate 136 -65 -73 0
-65 -136 0
-73 -136 0
65 73 136 0
c gate 137 -135 136 0
-135 -137 0
136 -137 0
135 -136 137 0
c gate 138 -72 -83 0
-72 -138 0
-83 -138 0
72 83 138 0
c gate 139 -137 138 0
-137 -139 0
138 -139 0
137 -138 139 0
c gate 140 -126 -139 0
-126 -140 0
-139 -140 0
126 139 140 0
c gate 141 -57 -140 0
-57 -141 0
-140 -141 0
57 140 141 0
c gate 142 7 -23 0
7 -142 0
-23 -142 0
-7 23 142 0
c gate 143 -54 142 0
-54 -143 0
142 -143 0
54 -142 143 0
c gate 144 -141 -143 0
-141 -144 0
-143 -144 0
141 143 144 0
c gate 145 -54 -144 0
-54 -145 0
-144 -145 0
54 144 145 0
c gate 146 125 -145 0
125 -146 0
-145 -146 0
-125 145 146 0
c gate 147 -122 -146 0
-122 -147 0
-146 -147 0
122 146 147 0
c gate 148 10 -26 0
10 -148 0
-26 -148 0
-10 26 148 0
c gate 149 -121 -148 0
-121 -149 0
-148 -149 0
121 148 149 0
c gate 150 -147 149 0
-147 -150 0
149 -150 0
147 -149 150 0
c gate 151 -121 -150 0
-121 -151 0
-150 -151 0
121 150 151 0
c gate 152 -120 -151 0
-120 -152 0
-151 -152 0
120 151 152 0
c gate 153 -42 -43 0
-42 -153 0
-43 -153 0
42 43 153 0
c gate 154 -41 -153 0
-41 -154 0
-153 -154 0
41 153 154 0
c gate 155 -44 -45 0
-44 -155 0
-45 -155 0
44 45 155 0
c gate 156 -35 -38 0
-35 -156 0
-38 -156 0
35 38 156 0
c gate 157 -155 156 0
-155 -157 0
156 -157 0
155 -156 157 0
c gate 158 154 157 0
154 -158 0
157 -158 0
-154 -157 158 0
c gate 159 152 158 0
152 -159 0
158 -159 0
-152 -158 159 0
c gate 160 -125 149 0
-125 -160 0
149 -160 0
125 -149 160 0
c gate 161 -148 -160 0
-148 -161 0
-160 -161 0
148 160 161 0
c gate 162 120 -161 0
120 -162 0
-161 -162 0
-120 161 162 0
c gate 163 120 151 0
120 -163 0
151 -163 0
-120 -151 163 0
c gate 164 -152 -163 0
-152 -164 0
-163 -164 0
152 163 164 0
c gate 165 -162 -164 0
-162 -165 0
-164 -165 0
162 164 165 0
c gate 166 125 -149 0
125 -166 0
-149 -166 0
-125 149 166 0
c gate 167 -160 -166 0
-160 -167 0
-166 -167 0
160 166 167 0
c gate 168 147 -149 0
147 -168 0
-149 -168 0
-147 149 168 0
c gate 169 -150 -168 0
-150 -169 0
-168 -169 0
150 168 169 0
c gate 170 -167 -169 0
-167 -170 0
-169 -170 0
167 169 170 0
c gate 171 167 169 0
167 -171 0
169 -171 0
-167 -169 171 0
c gate 172 57 139 0
57 -172 0
139 -172 0
-57 -139 172 0
c gate 173 -141 -172 0
-141 -173 0
-172 -173 0
141 172 173 0
c gate 174 35 -119 0
35 -174 0
-119 -174 0
-35 119 174 0
c gate 175 173 -174 0
173 -175 0
-174 -175 0
-173 174 175 0
c gate 176 -86 -88 0
-86 -176 0
-88 -176 0
86 88 176 0
c gate 177 60 61 0
60 -177 0
61 -177 0
-60 -61 177 0
c gate 178 176 177 0
176 -178 0
177 -178 0
-176 -177 178 0
c gate 179 -89 -178 0
-89 -179 0
-178 -179 0
89 178 179 0
c gate 180 -38 104 0
-38 -180 0
104 -180 0
38 -104 180 0
c gate 181 -105 -180 0
-105 -181 0
-180 -181 0
105 180 181 0
c gate 182 38 -112 0
38 -182 0
-112 -182 0
-38 112 182 0
c gate 183 -38 112 0
-38 -183 0
112 -183 0
38 -112 183 0
c gate 184 -182 -183 0
-182 -184 0
-183 -184 0
182 183 184 0
c gate 185 -181 -184 0
-181 -185 0
-184 -185 0
181 184 185 0
c gate 186 181 184 0
181 -186 0
184 -186 0
-181 -184 186 0
c gate 187 45 153 0
45 -187 0
153 -187 0
-45 -153 187 0
c gate 188 100 -187 0
100 -188 0
-187 -188 0
-100 187 188 0
c gate 189 -186 -188 0
-186 -189 0
-188 -189 0
186 188 189 0
c gate 190 -185 189 0
-185 -190 0
189 -190 0
185 -189 190 0
c gate 191 119 190 0
119 -191 0
190 -191 0
-119 -190 191 0
c gate 192 179 191 0
179 -192 0
191 -192 0
-179 -191 192 0
c gate 193 51 -93 0
51 -193 0
-93 -193 0
-51 93 193 0
c gate 194 -46 -48 0
-46 -194 0
-48 -194 0
46 48 194 0
c gate 195 155 194 0
155 -195 0
194 -195 0
-155 -194 195 0
c gate 196 -193 195 0
-193 -196 0
195 -196 0
193 -195 196 0
c gate 197 -98 196 0
-98 -197 0
196 -197 0
98 -196 197 0
c gate 198 89 -197 0
89 -198 0
-197 -198 0
-89 197 198 0
c gate 199 191 -198 0
191 -199 0
-198 -199 0
-191 198 199 0
c gate 200 -41 110 0
-41 -200 0
110 -200 0
41 -110 200 0
c gate 201 -111 -200 0
-111 -201 0
-200 -201 0
111 200 201 0
c gate 202 -41 102 0
-41 -202 0
102 -202 0
41 -102 202 0
c gate 203 -103 -202 0
-103 -203 0
-202 -203 0
103 202 203 0
c gate 204 201 203 0
201 -204 0
203 -204 0
-201 -203 204 0
c gate 205 100 -153 0
100 -205 0
-153 -205 0
-100 153 205 0
c gate 206 -204 205 0
-204 -206 0
205 -206 0
204 -205 206 0
c gate 207 -201 -203 0
-201 -207 0
-203 -207 0
201 203 207 0
c gate 208 -206 -207 0
-206 -208 0
-207 -208 0
206 207 208 0
c gate 209 -185 208 0
-185 -209 0
208 -209 0
185 -208 209 0
c gate 210 -186 -209 0
-186 -210 0
-209 -210 0
186 209 210 0
c gate 211 -117 210 0
-117 -211 0
210 -211 0
117 -210 211 0
c gate 212 -118 -211 0
-118 -212 0
-211 -212 0
118 211 212 0
c gate 213 -199 212 0
-199 -213 0
212 -213 0
199 -212 213 0
c gate 214 -192 -213 0
-192 -214 0
-213 -214 0
192 213 214 0
c gate 215 175 -214 0
175 -215 0
-214 -215 0
-175 214 215 0
c gate 216 -113 173 0
-113 -216 0
173 -216 0
113 -173 216 0
c gate 217 107 216 0
107 -217 0
216 -217 0
-107 -216 217 0
c gate 218 -172 -217 0
-172 -218 0
-217 -218 0
172 217 218 0
c gate 219 -175 218 0
-175 -219 0
218 -219 0
175 -218 219 0
c gate 220 -215 -219 0
-215 -220 0
-219 -220 0
215 219 220 0
c gate 221 -141 -220 0
-141 -221 0
-220 -221 0
141 220 221 0
c gate 222 -145 -221 0
-145 -222 0
-221 -222 0
145 221 222 0
c gate 223 -122 -124 0
-122 -223 0
-124 -223 0
122 124 223 0
c gate 224 145 -223 0
145 -224 0
-223 -224 0
-145 223 224 0
c gate 225 -222 -224 0
-222 -225 0
-224 -225 0
222 224 225 0
c gate 226 -171 -225 0
-171 -226 0
-225 -226 0
171 225 226 0
c gate 227 -170 -226 0
-170 -227 0
-226 -227 0
170 226 227 0
c gate 228 -165 227 0
-165 -228 0
227 -228 0
165 -227 228 0
c gate 229 -151 162 0
-151 -229 0
162 -229 0
151 -162 229 0
c gate 230 -152 -229 0
-152 -230 0
-229 -230 0
152 229 230 0
c gate 231 -228 230 0
-228 -231 0
230 -231 0
228 -230 231 0
c gate 232 -159 -231 0
-159 -232 0
-231 -232 0
159 231 232 0
c gate 233 -179 -198 0
-179 -233 0
-198 -233 0
179 198 233 0
c gate 234 -188 233 0
-188 -234 0
233 -234 0
188 -233 234 0
c gate 235 209 -234 0
209 -235 0
-234 -235 0
-209 234 235 0
c gate 236 -186 -235 0
-186 -236 0
-235 -236 0
186 235 236 0
c gate 237 232 -236 0
232 -237 0
-236 -237 0
-232 236 237 0
c gate 238 -78 176 0
-78 -238 0
176 -238 0
78 -176 238 0
c gate 239 -197 -238 0
-197 -239 0
-238 -239 0
197 238 239 0
c gate 240 -188 -239 0
-188 -240 0
-239 -240 0
188 239 240 0
c gate 241 209 -240 0
209 -241 0
-240 -241 0
-209 240 241 0
c gate 242 -186 -241 0
-186 -242 0
-241 -242 0
186 241 242 0
c gate 243 -232 242 0
-232 -243 0
242 -243 0
232 -242 243 0
c gate 244 -237 -243 0
-237 -244 0
-243 -244 0
237 243 244 0
c gate 245 119 -244 0
119 -245 0
-244 -245 0
-119 244 245 0
c gate 246 -119 244 0
-119 -246 0
244 -246 0
119 -244 246 0
c gate 247 -245 -246 0
-245 -247 0
-246 -247 0
245 246 247 0
c PO
247 0
